
Gurobi 11.0.0 (linux64) logging started Tue Sep 17 01:52:50 2024

Set parameter LogFile to value "gurobi.log"
Set parameter InfUnbdInfo to value 1
Gurobi Optimizer version 11.0.0 build v11.0.0rc2 (linux64 - "Ubuntu 22.04.4 LTS")

CPU model: AMD EPYC 7V13 64-Core Processor, instruction set [SSE2|AVX|AVX2]
Thread count: 128 physical cores, 128 logical processors, using up to 32 threads

Optimize a model with 30 rows, 343 columns and 95 nonzeros
Model fingerprint: 0xb606cfe2
Model has 338 quadratic constraints
Model has 2 general constraints
Variable types: 93 continuous, 250 integer (0 binary)
Coefficient statistics:
  Matrix range     [1e+00, 9e+06]
  QMatrix range    [1e+00, 9e+06]
  QLMatrix range   [1e+00, 9e+06]
  Objective range  [1e+00, 1e+00]
  Bounds range     [1e+00, 9e+15]
  RHS range        [1e+00, 1e+00]
  QRHS range       [1e+00, 2e+06]
Warning: Model contains large bounds
         Consider reformulating model or setting NumericFocus parameter
         to avoid numerical issues.
Using branch priorities (all 0).
Presolve added 113 rows and 53 columns
Presolve time: 0.01s
Presolved: 1209 rows, 617 columns, 3232 nonzeros
Presolved model has 86 SOS constraint(s)
Presolved model has 197 bilinear constraint(s)
Warning: Model contains variables with very large bounds participating
         in product terms.
         Presolve was not able to compute smaller bounds for these variables.
         Consider bounding these variables or reformulating the model.


Solving non-convex MIQCP

Variable types: 174 continuous, 443 integer (192 binary)

Root relaxation: objective 1.536178e+05, 358 iterations, 0.00 seconds (0.00 work units)

    Nodes    |    Current Node    |     Objective Bounds      |     Work
 Expl Unexpl |  Obj  Depth IntInf | Incumbent    BestBd   Gap | It/Node Time

     0     0 153617.844    0  187          - 153617.844      -     -    0s
     0     0 153620.120    0  186          - 153620.120      -     -    0s
H    0     0                    3.805632e+07 153620.120   100%     -    0s
H    0     0                    1.712986e+07 153620.120  99.1%     -    0s
H    0     0                    1.697626e+07 153620.120  99.1%     -    0s
     0     0 156694.286    0  238 1.6976e+07 156694.286  99.1%     -    0s
     0     0 156700.587    0  238 1.6976e+07 156700.587  99.1%     -    0s
     0     0 156700.587    0  222 1.6976e+07 156700.587  99.1%     -    0s
     0     0 172068.009    0  141 1.6976e+07 172068.009  99.0%     -    0s
     0     0 172071.011    0  151 1.6976e+07 172071.011  99.0%     -    0s
     0     0 172276.514    0  159 1.6976e+07 172276.514  99.0%     -    0s
H    0     0                    1.402714e+07 172276.514  98.8%     -    0s
     0     0 172276.514    0  159 1.4027e+07 172276.514  98.8%     -    0s
H    0     0                    1.155418e+07 172276.514  98.5%     -    0s
     0     0 172277.247    0  127 1.1554e+07 172277.247  98.5%     -    0s
H    0     0                    1.109338e+07 172281.837  98.4%     -    0s
     0     0 172281.837    0  148 1.1093e+07 172281.837  98.4%     -    0s
     0     0 172281.837    0  167 1.1093e+07 172281.837  98.4%     -    0s
     0     0 172282.596    0  138 1.1093e+07 172282.596  98.4%     -    0s
     0     0 172282.620    0  170 1.1093e+07 172282.620  98.4%     -    0s
     0     0 172295.330    0  170 1.1093e+07 172295.330  98.4%     -    0s
     0     2 172296.635    0  170 1.1093e+07 172296.635  98.4%     -    0s
H   26    35                    1.086298e+07 172494.819  98.4%  33.3    0s
H   48    59                    1.072177e+07 172532.026  98.4%  37.1    0s
H   50    59                    1.049137e+07 172532.026  98.4%  35.9    0s
H  111   117                    1.047295e+07 172569.639  98.4%  31.5    1s
H  113   117                    1.047295e+07 172569.639  98.4%  31.9    1s
H  133   117                    1.047126e+07 172569.639  98.4%  29.7    1s
H  464   369                    1.047087e+07 172569.639  98.4%  16.0    2s
H 1042   648                    1.046622e+07 172777.585  98.3%  11.0    3s
  3684  1465     cutoff   32      1.0466e+07 184161.422  98.2%  11.0    5s
H 3906  1465                    1.041894e+07 184161.422  98.2%  11.0    5s
H 4591  1521                    1.041862e+07 211909.171  98.0%  11.4    5s
H 6238  1799                    1.041190e+07 226759.551  97.8%  11.6    6s
H 6240  1799                    1.041190e+07 226759.551  97.8%  11.6    6s
  7940  2026 2238848.08   41   84 1.0412e+07 270418.097  97.4%  11.3   10s
H 8055  1986                    1.041190e+07 270418.097  97.4%  11.8   12s
  8408  1938 2373506.66   29   90 1.0412e+07 270418.097  97.4%  12.1   16s
  9239  1759 270418.097   31  133 1.0412e+07 270418.097  97.4%  12.2   20s
 13011   946 8913889.47   33   77 1.0412e+07 270418.097  97.4%  12.1   25s
 18426   199 infeasible   45      1.0412e+07 9626573.53  7.54%  11.6   30s

Cutting planes:
  Learned: 1
  Gomory: 1
  Implied bound: 45
  MIR: 9
  Flow cover: 7
  RLT: 11
  Relax-and-lift: 10
  BQP: 1

Explored 19806 nodes (224988 simplex iterations) in 31.25 seconds (3.44 work units)
Thread count was 32 (of 128 available processors)

Solution count 10: 1.04119e+07 1.04119e+07 1.04119e+07 ... 1.04713e+07

Optimal solution found (tolerance 1.00e-10)
Warning: max constraint violation (4.6476e-04) exceeds tolerance
Warning: max general constraint violation (4.6476e-04) exceeds tolerance
Best objective 1.041190249806e+07, best bound 1.041190249806e+07, gap 0.0000%
